benchmarks/INST_36x36/15/inst36x36_15_54.txt
6
1
-1	-1	-1	-1	-1	-1	-1	-1	-1	-1	36	-1	1	-1	-1	-1	-1	-1	12	-1	-1	27	-1	-1	-1	-1	-1	-1	-1	-1	-1	-1	-1	20	-1	9
-1	-1	-1	-1	-1	-1	30	-1	35	-1	-1	-1	-1	36	-1	-1	-1	-1	19	-1	28	14	-1	-1	-1	-1	-1	32	-1	-1	-1	-1	-1	17	-1	-1
-1	-1	-1	-1	10	-1	-1	-1	-1	-1	-1	-1	-1	-1	-1	-1	-1	-1	-1	25	-1	9	-1	13	35	-1	-1	-1	-1	-1	-1	-1	26	-1	7	-1
-1	18	25	-1	-1	-1	-1	-1	24	-1	-1	33	-1	-1	-1	-1	-1	-1	-1	-1	-1	7	-1	-1	-1	-1	-1	34	26	-1	-1	-1	-1	-1	-1	-1
-1	-1	-1	-1	-1	-1	-1	-1	-1	11	-1	-1	-1	-1	-1	-1	-1	-1	-1	-1	-1	-1	-1	-1	-1	-1	25	-1	-1	-1	-1	-1	-1	2	-1	-1
-1	-1	-1	-1	-1	-1	-1	-1	-1	-1	-1	-1	-1	-1	14	-1	-1	-1	-1	-1	-1	15	-1	-1	-1	-1	-1	-1	-1	-1	-1	4	-1	8	-1	-1
-1	-1	-1	-1	-1	-1	-1	-1	12	30	-1	28	-1	-1	-1	-1	-1	-1	-1	1	-1	-1	-1	-1	-1	-1	-1	-1	3	-1	-1	-1	-1	-1	-1	-1
-1	11	-1	-1	-1	-1	-1	-1	-1	-1	-1	-1	-1	-1	-1	-1	18	-1	-1	-1	20	-1	-1	2	9	-1	-1	-1	-1	27	-1	28	-1	-1	-1	8
-1	-1	-1	-1	23	-1	-1	-1	-1	-1	-1	-1	-1	-1	-1	-1	-1	-1	-1	-1	-1	-1	-1	-1	-1	-1	-1	-1	-1	-1	-1	-1	-1	3	-1	-1
-1	-1	-1	19	29	-1	-1	-1	-1	8	-1	-1	-1	-1	27	-1	-1	-1	-1	-1	-1	-1	-1	10	-1	-1	-1	30	-1	-1	-1	-1	-1	-1	-1	-1
-1	24	-1	8	28	-1	-1	-1	-1	-1	-1	-1	-1	19	-1	-1	20	-1	-1	-1	7	11	-1	-1	-1	-1	-1	-1	-1	15	-1	-1	-1	10	-1	-1
-1	-1	16	-1	-1	-1	-1	-1	-1	-1	-1	27	-1	-1	26	-1	24	-1	-1	-1	6	-1	-1	-1	-1	-1	-1	33	-1	31	-1	-1	35	-1	-1	-1
-1	-1	-1	-1	-1	-1	-1	-1	-1	-1	-1	1	-1	20	-1	-1	-1	-1	-1	-1	-1	-1	3	16	-1	-1	-1	-1	-1	-1	-1	-1	-1	-1	-1	-1
-1	-1	27	-1	-1	-1	-1	-1	-1	-1	-1	-1	-1	15	-1	-1	-1	-1	-1	-1	-1	-1	-1	-1	-1	-1	-1	-1	-1	-1	26	-1	-1	-1	-1	-1
-1	-1	-1	-1	-1	-1	-1	-1	-1	-1	-1	-1	-1	-1	-1	-1	19	-1	-1	-1	-1	-1	-1	-1	-1	-1	15	-1	-1	-1	-1	-1	-1	-1	-1	-1
-1	26	24	-1	-1	-1	-1	-1	-1	-1	-1	-1	18	-1	-1	-1	-1	-1	-1	-1	19	-1	-1	-1	-1	-1	-1	-1	-1	-1	-1	-1	-1	-1	-1	-1
35	-1	-1	-1	-1	-1	-1	-1	-1	-1	-1	-1	-1	-1	-1	-1	14	-1	-1	-1	-1	-1	-1	1	-1	-1	-1	-1	-1	-1	9	-1	-1	-1	-1	-1
-1	-1	-1	-1	-1	18	-1	-1	15	-1	-1	-1	24	-1	-1	-1	-1	-1	-1	-1	-1	-1	-1	28	-1	23	-1	-1	-1	1	-1	-1	-1	-1	-1	-1
16	-1	-1	-1	-1	8	-1	-1	-1	-1	-1	-1	-1	25	-1	-1	-1	-1	-1	-1	15	-1	-1	35	-1	-1	-1	-1	-1	-1	-1	-1	-1	26	-1	-1
-1	-1	-1	-1	-1	-1	-1	-1	-1	-1	-1	-1	-1	-1	-1	15	-1	-1	21	-1	14	-1	1	-1	33	36	-1	-1	-1	-1	8	23	-1	-1	-1	-1
24	-1	-1	-1	-1	21	-1	-1	11	20	-1	-1	-1	-1	-1	-1	-1	-1	4	-1	-1	-1	-1	22	-1	-1	-1	-1	-1	-1	-1	-1	-1	-1	-1	-1
-1	-1	-1	-1	-1	-1	-1	-1	-1	-1	-1	-1	-1	32	-1	-1	-1	-1	-1	-1	-1	-1	-1	-1	-1	-1	4	-1	-1	-1	-1	-1	-1	-1	-1	-1
-1	-1	-1	-1	30	-1	-1	-1	-1	31	-1	10	34	-1	24	-1	-1	23	2	-1	27	-1	-1	-1	-1	29	-1	-1	-1	-1	-1	-1	-1	-1	-1	-1
-1	19	5	-1	-1	22	-1	-1	33	-1	-1	23	20	2	-1	-1	27	-1	17	-1	-1	24	-1	-1	-1	-1	-1	-1	-1	-1	-1	36	-1	-1	-1	-1
-1	-1	-1	-1	-1	-1	-1	-1	-1	-1	-1	-1	-1	-1	-1	-1	-1	-1	-1	-1	-1	-1	19	-1	17	-1	-1	-1	-1	-1	34	26	-1	-1	-1	-1
-1	-1	-1	-1	-1	-1	-1	-1	-1	-1	-1	-1	-1	-1	-1	-1	-1	-1	-1	-1	-1	-1	-1	-1	-1	-1	-1	-1	-1	5	-1	-1	-1	-1	-1	-1
-1	-1	-1	-1	25	-1	-1	-1	-1	-1	-1	-1	-1	-1	3	-1	-1	-1	-1	-1	-1	-1	-1	-1	-1	-1	-1	-1	-1	-1	-1	33	-1	-1	-1	31
-1	-1	-1	-1	-1	-1	-1	6	-1	-1	-1	-1	-1	5	-1	-1	-1	-1	31	-1	-1	-1	10	-1	-1	-1	24	14	-1	-1	-1	3	36	-1	-1	-1
-1	10	-1	-1	-1	-1	-1	-1	-1	24	-1	-1	16	-1	-1	-1	21	-1	-1	-1	-1	-1	-1	6	-1	-1	-1	-1	-1	22	-1	-1	-1	-1	4	-1
-1	-1	-1	-1	-1	-1	-1	-1	-1	-1	16	-1	-1	-1	-1	-1	-1	-1	-1	-1	-1	-1	-1	36	-1	-1	-1	-1	-1	-1	-1	-1	-1	-1	-1	-1
-1	-1	-1	-1	-1	-1	-1	-1	-1	-1	-1	-1	-1	-1	-1	-1	-1	-1	27	-1	-1	-1	-1	-1	31	-1	20	-1	-1	-1	-1	-1	-1	-1	-1	11
-1	-1	-1	-1	-1	-1	15	-1	-1	-1	-1	-1	-1	-1	-1	-1	-1	-1	-1	-1	-1	-1	-1	-1	-1	-1	-1	-1	-1	-1	-1	-1	-1	31	-1	-1
-1	15	11	-1	-1	-1	-1	-1	19	-1	-1	-1	-1	-1	-1	30	-1	-1	-1	8	-1	-1	-1	-1	-1	-1	-1	-1	-1	-1	4	-1	-1	-1	-1	-1
-1	-1	-1	-1	-1	-1	-1	-1	-1	-1	-1	-1	-1	-1	-1	13	-1	-1	-1	-1	-1	-1	22	-1	-1	-1	-1	3	-1	26	-1	-1	-1	-1	-1	-1
-1	-1	20	-1	34	-1	-1	-1	-1	-1	-1	-1	-1	-1	-1	6	32	-1	-1	15	-1	-1	-1	-1	-1	-1	1	22	-1	-1	-1	8	-1	-1	-1	-1
-1	-1	-1	25	-1	-1	-1	-1	-1	-1	8	-1	-1	27	-1	-1	-1	-1	-1	-1	-1	-1	-1	-1	-1	11	32	-1	-1	-1	-1	-1	-1	-1	5	-1
